%%% static parameters %%%
timespan = 1;
Fact = [2];
Distr1 = [5];
Distr2 = [10];
Clients_N = [120];
Demand_W = [15];
Lt0 = [4];
Lt1 = [4];
SS_ = [0.85];
DS_D = [5];
K = [200];
MA = [500];
%%% dynamic parameters %%%
lost_ratio_sales_ret_th = 0.17610665486156152;
lost_ratio_sales_ret_w = 41;
lost_ratio_sales_dis_th = 0.34731829582829843;
lost_ratio_sales_dis_w = 9;
lost_ratio_sales_fac_th = 0.9213918608682315;
lost_ratio_sales_fac_w = 18;
stock_customer_MA_mean_relative_th = 0.1561433889922983;
stock_customer_MA_mean_relative_w = 78;
stock_distributor_MA_mean_relative_th = 0.9539411325034024;
stock_distributor_MA_mean_relative_w = 78;
stock_retailer_MA_mean_relative_th = 0.7997825960318097;
stock_retailer_MA_mean_relative_w = 71;
stock_factory_MA_mean_relative_th = 0.6545804221468339;
stock_factory_MA_mean_relative_w = 36;
